\ENCODING=ISO-8859-1
\Problem name: ilog.cplex

Minimize
 obj: 7.46862981955673 x1 + 13.9725629134461 x2 + 7.15402146520842 x3
      + 10.6324777496867 x4 + 4.41951492726583 x5 + 15.0213494085142 x6
      + 4.35009540569549 x7 + 14.9561186943027 x8 + 13.652530067029 x9
      + 8.97908566091627 x10 + 3.4879636360794 x11 + 11.2242830339795 x12
      + 8.8079070320321 x13 + 2.35952462483788 x14 + 7.46862981955673 x15
      + 19.9319150423331 x16 + 0.718271580630778 x17 + 17.8065869509644 x18
      + 11.2297397809518 x19 + 21.4821587445548 x20 + 3.24207178548332 x21
      + 19.3885376148423 x22 + 19.9243563100974 x23 + 16.3299371468974 x24
      + 4.8011469259982 x25 + 14.5901135273916 x26 + 15.9988157504596 x27
      + 5.18903480052618 x28 + 13.9725629134461 x29 + 19.9319150423331 x30
      + 19.323232084228 x31 + 6.15364888434952 x32 + 14.2982450119782 x33
      + 2.475374516547 x34 + 16.8782193212316 x35 + 4.85147686291445 x36
      + 1.222052538481 x37 + 7.90143381831375 x38 + 17.3649548075342 x39
      + 7.78252751666288 x40 + 13.2576779618326 x41 + 16.0011382652404 x42
      + 7.15402146520842 x43 + 0.718271580630778 x44 + 19.323232084228 x45
      + 17.3452671732559 x46 + 11.078877770289 x47 + 20.9119074438566 x48
      + 2.82894717337667 x49 + 18.704476984871 x50 + 19.3405841049468 x51
      + 15.9182854673485 x52 + 4.76909850133908 x53 + 13.8894835083014 x54
      + 15.804234277593 x55 + 4.95423343136506 x56 + 10.6324777496867 x57
      + 17.8065869509644 x58 + 6.15364888434952 x59 + 17.3452671732559 x60
      + 9.30716482670907 x61 + 5.57093585852951 x62 + 14.5645951971272 x63
      + 10.2780495976359 x64 + 5.09114568236202 x65 + 2.06371574539172 x66
      + 14.0846440918631 x67 + 10.6557307944421 x68 + 7.21756200668487 x69
      + 12.970172638483 x70 + 4.41951492726583 x71 + 11.2297397809518 x72
      + 14.2982450119782 x73 + 11.078877770289 x74 + 9.30716482670907 x75
      + 14.6215653288355 x76 + 8.45521935245003 x77 + 16.597196222817 x78
      + 13.6239815627901 x79 + 7.27472761234135 x80 + 6.49208721079791 x81
      + 13.9148345352303 x82 + 4.82171897489301 x83 + 6.15709129799113 x84
      + 15.0213494085142 x85 + 21.4821587445548 x86 + 2.475374516547 x87
      + 20.9119074438566 x88 + 5.57093585852951 x89 + 14.6215653288355 x90
      + 18.3325609191585 x91 + 7.19958368978777 x92 + 1.69234325683493 x93
      + 7.5947236276938 x94 + 18.4930701699899 x95 + 10.1839864657797 x96
      + 12.7521020548824 x97 + 17.2003817873157 x98 + 4.35009540569549 x99
      + 3.24207178548332 x100 + 16.8782193212316 x101 + 2.82894717337667 x102
      + 14.5645951971272 x103 + 8.45521935245003 x104 + 18.3325609191585 x105
      + 16.7304698066599 x106 + 16.8048825786971 x107 + 13.1002265776785 x108
      + 2.76470582120824 x109 + 12.1625963366679 x110 + 13.0904202812977 x111
      + 2.31691704992751 x112 + 14.9561186943027 x113 + 19.3885376148423 x114
      + 4.85147686291445 x115 + 18.704476984871 x116 + 10.2780495976359 x117
      + 16.597196222817 x118 + 7.19958368978777 x119 + 16.7304698066599 x120
      + 6.03775495298223 x121 + 11.5751829284865 x122 + 17.9559793410587 x123
      + 5.01927334134726 x124 + 16.7775189225922 x125 + 16.5133361641304 x126
      + 13.652530067029 x127 + 19.9243563100974 x128 + 1.222052538481 x129
      + 19.3405841049468 x130 + 5.09114568236202 x131 + 13.6239815627901 x132
      + 1.69234325683493 x133 + 16.8048825786971 x134 + 6.03775495298223 x135
      + 6.94554709304425 x136 + 17.0971990752915 x137 + 8.55400043022649 x138
      + 12.2734500528485 x139 + 15.7713430070533 x140 + 8.97908566091627 x141
      + 16.3299371468974 x142 + 7.90143381831375 x143 + 15.9182854673485 x144
      + 2.06371574539172 x145 + 7.27472761234135 x146 + 7.5947236276938 x147
      + 13.1002265776785 x148 + 11.5751829284865 x149 + 6.94554709304425 x150
      + 12.3604956851403 x151 + 11.0954133538976 x152 + 5.35882305048227 x153
      + 11.3380737814261 x154 + 3.4879636360794 x155 + 4.8011469259982 x156
      + 17.3649548075342 x157 + 4.76909850133908 x158 + 14.0846440918631 x159
      + 6.49208721079791 x160 + 18.4930701699899 x161 + 2.76470582120824 x162
      + 17.9559793410587 x163 + 17.0971990752915 x164 + 12.3604956851403 x165
      + 13.7734874675065 x166 + 11.3036770645869 x167 + 1.44446805507757 x168
      + 11.2242830339795 x169 + 14.5901135273916 x170 + 7.78252751666288 x171
      + 13.8894835083014 x172 + 10.6557307944421 x173 + 13.9148345352303 x174
      + 10.1839864657797 x175 + 12.1625963366679 x176 + 5.01927334134726 x177
      + 8.55400043022649 x178 + 11.0954133538976 x179 + 13.7734874675065 x180
      + 15.4876101602753 x181 + 12.3423104068 x182 + 8.8079070320321 x183
      + 15.9988157504596 x184 + 13.2576779618326 x185 + 15.804234277593 x186
      + 7.21756200668487 x187 + 4.82171897489301 x188 + 12.7521020548824 x189
      + 13.0904202812977 x190 + 16.7775189225922 x191 + 12.2734500528485 x192
      + 5.35882305048227 x193 + 11.3036770645869 x194 + 15.4876101602753 x195
      + 10.8505857185889 x196 + 2.35952462483788 x197 + 5.18903480052618 x198
      + 16.0011382652404 x199 + 4.95423343136506 x200 + 12.970172638483 x201
      + 6.15709129799113 x202 + 17.2003817873157 x203 + 2.31691704992751 x204
      + 16.5133361641304 x205 + 15.7713430070533 x206 + 11.3380737814261 x207
      + 1.44446805507757 x208 + 12.3423104068 x209 + 10.8505857185889 x210
Subject To
 c1:  x1 + x2 + x3 + x4 + x5 + x6 + x7 + x8 + x9 + x10 + x11 + x12 + x13 + x14
       = 1
 c2:  x15 + x16 + x17 + x18 + x19 + x20 + x21 + x22 + x23 + x24 + x25 + x26
      + x27 + x28  = 1
 c3:  x29 + x30 + x31 + x32 + x33 + x34 + x35 + x36 + x37 + x38 + x39 + x40
      + x41 + x42  = 1
 c4:  x43 + x44 + x45 + x46 + x47 + x48 + x49 + x50 + x51 + x52 + x53 + x54
      + x55 + x56  = 1
 c5:  x57 + x58 + x59 + x60 + x61 + x62 + x63 + x64 + x65 + x66 + x67 + x68
      + x69 + x70  = 1
 c6:  x71 + x72 + x73 + x74 + x75 + x76 + x77 + x78 + x79 + x80 + x81 + x82
      + x83 + x84  = 1
 c7:  x85 + x86 + x87 + x88 + x89 + x90 + x91 + x92 + x93 + x94 + x95 + x96
      + x97 + x98  = 1
 c8:  x99 + x100 + x101 + x102 + x103 + x104 + x105 + x106 + x107 + x108 + x109
      + x110 + x111 + x112  = 1
 c9:  x113 + x114 + x115 + x116 + x117 + x118 + x119 + x120 + x121 + x122
      + x123 + x124 + x125 + x126  = 1
 c10: x127 + x128 + x129 + x130 + x131 + x132 + x133 + x134 + x135 + x136
      + x137 + x138 + x139 + x140  = 1
 c11: x141 + x142 + x143 + x144 + x145 + x146 + x147 + x148 + x149 + x150
      + x151 + x152 + x153 + x154  = 1
 c12: x155 + x156 + x157 + x158 + x159 + x160 + x161 + x162 + x163 + x164
      + x165 + x166 + x167 + x168  = 1
 c13: x169 + x170 + x171 + x172 + x173 + x174 + x175 + x176 + x177 + x178
      + x179 + x180 + x181 + x182  = 1
 c14: x183 + x184 + x185 + x186 + x187 + x188 + x189 + x190 + x191 + x192
      + x193 + x194 + x195 + x196  = 1
 c15: x197 + x198 + x199 + x200 + x201 + x202 + x203 + x204 + x205 + x206
      + x207 + x208 + x209 + x210  = 1
 c16: x15 + x29 + x43 + x57 + x71 + x85 + x99 + x113 + x127 + x141 + x155
      + x169 + x183 + x197  = 1
 c17: x1 + x30 + x44 + x58 + x72 + x86 + x100 + x114 + x128 + x142 + x156
      + x170 + x184 + x198  = 1
 c18: x2 + x16 + x45 + x59 + x73 + x87 + x101 + x115 + x129 + x143 + x157
      + x171 + x185 + x199  = 1
 c19: x3 + x17 + x31 + x60 + x74 + x88 + x102 + x116 + x130 + x144 + x158
      + x172 + x186 + x200  = 1
 c20: x4 + x18 + x32 + x46 + x75 + x89 + x103 + x117 + x131 + x145 + x159
      + x173 + x187 + x201  = 1
 c21: x5 + x19 + x33 + x47 + x61 + x90 + x104 + x118 + x132 + x146 + x160
      + x174 + x188 + x202  = 1
 c22: x6 + x20 + x34 + x48 + x62 + x76 + x105 + x119 + x133 + x147 + x161
      + x175 + x189 + x203  = 1
 c23: x7 + x21 + x35 + x49 + x63 + x77 + x91 + x120 + x134 + x148 + x162 + x176
      + x190 + x204  = 1
 c24: x8 + x22 + x36 + x50 + x64 + x78 + x92 + x106 + x135 + x149 + x163 + x177
      + x191 + x205  = 1
 c25: x9 + x23 + x37 + x51 + x65 + x79 + x93 + x107 + x121 + x150 + x164 + x178
      + x192 + x206  = 1
 c26: x10 + x24 + x38 + x52 + x66 + x80 + x94 + x108 + x122 + x136 + x165
      + x179 + x193 + x207  = 1
 c27: x11 + x25 + x39 + x53 + x67 + x81 + x95 + x109 + x123 + x137 + x151
      + x180 + x194 + x208  = 1
 c28: x12 + x26 + x40 + x54 + x68 + x82 + x96 + x110 + x124 + x138 + x152
      + x166 + x195 + x209  = 1
 c29: x13 + x27 + x41 + x55 + x69 + x83 + x97 + x111 + x125 + x139 + x153
      + x167 + x181 + x210  = 1
 c30: x14 + x28 + x42 + x56 + x70 + x84 + x98 + x112 + x126 + x140 + x154
      + x168 + x182 + x196  = 1
Bounds
 0 <= x1 <= 1
 0 <= x2 <= 1
 0 <= x3 <= 1
 0 <= x4 <= 1
 0 <= x5 <= 1
 0 <= x6 <= 1
 0 <= x7 <= 1
 0 <= x8 <= 1
 0 <= x9 <= 1
 0 <= x10 <= 1
 0 <= x11 <= 1
 0 <= x12 <= 1
 0 <= x13 <= 1
 0 <= x14 <= 1
 0 <= x15 <= 1
 0 <= x16 <= 1
 0 <= x17 <= 1
 0 <= x18 <= 1
 0 <= x19 <= 1
 0 <= x20 <= 1
 0 <= x21 <= 1
 0 <= x22 <= 1
 0 <= x23 <= 1
 0 <= x24 <= 1
 0 <= x25 <= 1
 0 <= x26 <= 1
 0 <= x27 <= 1
 0 <= x28 <= 1
 0 <= x29 <= 1
 0 <= x30 <= 1
 0 <= x31 <= 1
 0 <= x32 <= 1
 0 <= x33 <= 1
 0 <= x34 <= 1
 0 <= x35 <= 1
 0 <= x36 <= 1
 0 <= x37 <= 1
 0 <= x38 <= 1
 0 <= x39 <= 1
 0 <= x40 <= 1
 0 <= x41 <= 1
 0 <= x42 <= 1
 0 <= x43 <= 1
 0 <= x44 <= 1
 0 <= x45 <= 1
 0 <= x46 <= 1
 0 <= x47 <= 1
 0 <= x48 <= 1
 0 <= x49 <= 1
 0 <= x50 <= 1
 0 <= x51 <= 1
 0 <= x52 <= 1
 0 <= x53 <= 1
 0 <= x54 <= 1
 0 <= x55 <= 1
 0 <= x56 <= 1
 0 <= x57 <= 1
 0 <= x58 <= 1
 0 <= x59 <= 1
 0 <= x60 <= 1
 0 <= x61 <= 1
 0 <= x62 <= 1
 0 <= x63 <= 1
 0 <= x64 <= 1
 0 <= x65 <= 1
 0 <= x66 <= 1
 0 <= x67 <= 1
 0 <= x68 <= 1
 0 <= x69 <= 1
 0 <= x70 <= 1
 0 <= x71 <= 1
 0 <= x72 <= 1
 0 <= x73 <= 1
 0 <= x74 <= 1
 0 <= x75 <= 1
 0 <= x76 <= 1
 0 <= x77 <= 1
 0 <= x78 <= 1
 0 <= x79 <= 1
 0 <= x80 <= 1
 0 <= x81 <= 1
 0 <= x82 <= 1
 0 <= x83 <= 1
 0 <= x84 <= 1
 0 <= x85 <= 1
 0 <= x86 <= 1
 0 <= x87 <= 1
 0 <= x88 <= 1
 0 <= x89 <= 1
 0 <= x90 <= 1
 0 <= x91 <= 1
 0 <= x92 <= 1
 0 <= x93 <= 1
 0 <= x94 <= 1
 0 <= x95 <= 1
 0 <= x96 <= 1
 0 <= x97 <= 1
 0 <= x98 <= 1
 0 <= x99 <= 1
 0 <= x100 <= 1
 0 <= x101 <= 1
 0 <= x102 <= 1
 0 <= x103 <= 1
 0 <= x104 <= 1
 0 <= x105 <= 1
 0 <= x106 <= 1
 0 <= x107 <= 1
 0 <= x108 <= 1
 0 <= x109 <= 1
 0 <= x110 <= 1
 0 <= x111 <= 1
 0 <= x112 <= 1
 0 <= x113 <= 1
 0 <= x114 <= 1
 0 <= x115 <= 1
 0 <= x116 <= 1
 0 <= x117 <= 1
 0 <= x118 <= 1
 0 <= x119 <= 1
 0 <= x120 <= 1
 0 <= x121 <= 1
 0 <= x122 <= 1
 0 <= x123 <= 1
 0 <= x124 <= 1
 0 <= x125 <= 1
 0 <= x126 <= 1
 0 <= x127 <= 1
 0 <= x128 <= 1
 0 <= x129 <= 1
 0 <= x130 <= 1
 0 <= x131 <= 1
 0 <= x132 <= 1
 0 <= x133 <= 1
 0 <= x134 <= 1
 0 <= x135 <= 1
 0 <= x136 <= 1
 0 <= x137 <= 1
 0 <= x138 <= 1
 0 <= x139 <= 1
 0 <= x140 <= 1
 0 <= x141 <= 1
 0 <= x142 <= 1
 0 <= x143 <= 1
 0 <= x144 <= 1
 0 <= x145 <= 1
 0 <= x146 <= 1
 0 <= x147 <= 1
 0 <= x148 <= 1
 0 <= x149 <= 1
 0 <= x150 <= 1
 0 <= x151 <= 1
 0 <= x152 <= 1
 0 <= x153 <= 1
 0 <= x154 <= 1
 0 <= x155 <= 1
 0 <= x156 <= 1
 0 <= x157 <= 1
 0 <= x158 <= 1
 0 <= x159 <= 1
 0 <= x160 <= 1
 0 <= x161 <= 1
 0 <= x162 <= 1
 0 <= x163 <= 1
 0 <= x164 <= 1
 0 <= x165 <= 1
 0 <= x166 <= 1
 0 <= x167 <= 1
 0 <= x168 <= 1
 0 <= x169 <= 1
 0 <= x170 <= 1
 0 <= x171 <= 1
 0 <= x172 <= 1
 0 <= x173 <= 1
 0 <= x174 <= 1
 0 <= x175 <= 1
 0 <= x176 <= 1
 0 <= x177 <= 1
 0 <= x178 <= 1
 0 <= x179 <= 1
 0 <= x180 <= 1
 0 <= x181 <= 1
 0 <= x182 <= 1
 0 <= x183 <= 1
 0 <= x184 <= 1
 0 <= x185 <= 1
 0 <= x186 <= 1
 0 <= x187 <= 1
 0 <= x188 <= 1
 0 <= x189 <= 1
 0 <= x190 <= 1
 0 <= x191 <= 1
 0 <= x192 <= 1
 0 <= x193 <= 1
 0 <= x194 <= 1
 0 <= x195 <= 1
 0 <= x196 <= 1
 0 <= x197 <= 1
 0 <= x198 <= 1
 0 <= x199 <= 1
 0 <= x200 <= 1
 0 <= x201 <= 1
 0 <= x202 <= 1
 0 <= x203 <= 1
 0 <= x204 <= 1
 0 <= x205 <= 1
 0 <= x206 <= 1
 0 <= x207 <= 1
 0 <= x208 <= 1
 0 <= x209 <= 1
 0 <= x210 <= 1
Binaries
 x1  x2  x3  x4  x5  x6  x7  x8  x9  x10  x11  x12  x13  x14  x15  x16  x17 
 x18  x19  x20  x21  x22  x23  x24  x25  x26  x27  x28  x29  x30  x31  x32 
 x33  x34  x35  x36  x37  x38  x39  x40  x41  x42  x43  x44  x45  x46  x47 
 x48  x49  x50  x51  x52  x53  x54  x55  x56  x57  x58  x59  x60  x61  x62 
 x63  x64  x65  x66  x67  x68  x69  x70  x71  x72  x73  x74  x75  x76  x77 
 x78  x79  x80  x81  x82  x83  x84  x85  x86  x87  x88  x89  x90  x91  x92 
 x93  x94  x95  x96  x97  x98  x99  x100  x101  x102  x103  x104  x105  x106 
 x107  x108  x109  x110  x111  x112  x113  x114  x115  x116  x117  x118  x119 
 x120  x121  x122  x123  x124  x125  x126  x127  x128  x129  x130  x131  x132 
 x133  x134  x135  x136  x137  x138  x139  x140  x141  x142  x143  x144  x145 
 x146  x147  x148  x149  x150  x151  x152  x153  x154  x155  x156  x157  x158 
 x159  x160  x161  x162  x163  x164  x165  x166  x167  x168  x169  x170  x171 
 x172  x173  x174  x175  x176  x177  x178  x179  x180  x181  x182  x183  x184 
 x185  x186  x187  x188  x189  x190  x191  x192  x193  x194  x195  x196  x197 
 x198  x199  x200  x201  x202  x203  x204  x205  x206  x207  x208  x209  x210 
End
